
Gurobi 11.0.3 (linux64) logging started Mon Aug 25 15:05:00 2025

Set parameter LogFile to value "/home/yihong/Coding/OR_SUC/SUC_epstheta_results_bigM100000_thread4/case24_ieee_rts_theta0.1_epsilon0.1_gurobi_seed20000_num_gen100_N_WDR50_load_scaling_factor1_proposed_theta_T10quadra_cost_bc1.01.txt"
Set parameter TimeLimit to value 3600
Gurobi Optimizer version 11.0.3 build v11.0.3rc0 (linux64 - "Ubuntu 20.04.6 LTS")

CPU model: AMD EPYC 7532 32-Core Processor, instruction set [SSE2|AVX|AVX2]
Thread count: 64 physical cores, 128 logical processors, using up to 4 threads

Academic license 2399124 - for non-commercial use only - registered to yi___@ed.ac.uk
Optimize a model with 23642 rows, 12451 columns and 547142 nonzeros
Model fingerprint: 0x6d06a986
Model has 1000 quadratic constraints
Variable types: 11451 continuous, 1000 integer (1000 binary)
Coefficient statistics:
  Matrix range     [3e-04, 3e+03]
  QMatrix range    [2e-03, 8e-03]
  QLMatrix range   [2e-02, 6e+01]
  Objective range  [1e+00, 1e+00]
  Bounds range     [1e+00, 1e+00]
  RHS range        [1e+00, 9e+03]
Presolve removed 19438 rows and 5394 columns
Presolve time: 0.17s
Presolved: 4204 rows, 7057 columns, 23468 nonzeros
Presolved model has 1000 quadratic constraint(s)
Variable types: 6057 continuous, 1000 integer (1000 binary)

Root relaxation: objective 1.255130e+04, 3253 iterations, 0.09 seconds (0.08 work units)

    Nodes    |    Current Node    |     Objective Bounds      |     Work
 Expl Unexpl |  Obj  Depth IntInf | Incumbent    BestBd   Gap | It/Node Time

H    0     0                    263552.82081 12551.2997  95.2%     -    0s
*    0     0               0    263552.82081 12551.2997  95.2%     -    0s
     0     0 118408.632    0  398 263552.821 118408.632  55.1%     -    0s
     0     0 238214.401    0   98 263552.821 238214.401  9.61%     -    0s
     0     0 238218.861    0   11 263552.821 238218.861  9.61%     -    0s
     0     0 238267.846    0    8 263552.821 238267.846  9.59%     -    0s
     0     0 238268.153    0    8 263552.821 238268.153  9.59%     -    0s
     0     0 238268.724    0    9 263552.821 238268.724  9.59%     -    0s
     0     0 238268.765    0    9 263552.821 238268.765  9.59%     -    0s
     0     2 238268.765    0    9 263552.821 238268.765  9.59%     -    1s
H   84   121                    238305.09698 238271.593  0.01%  15.9    1s
*   84   121              27    238305.09698 238271.593  0.01%  16.0    1s

Cutting planes:
  Gomory: 63
  Lift-and-project: 4
  Implied bound: 151
  MIR: 25
  Flow cover: 191
  RLT: 167
  Relax-and-lift: 68

Explored 124 nodes (10089 simplex iterations) in 1.85 seconds (1.74 work units)
Thread count was 4 (of 128 available processors)

Solution count 3: 238305 238305 263553 

Optimal solution found (tolerance 1.00e-03)
Warning: max constraint violation (7.3868e-08) exceeds tolerance
Best objective 2.383050969804e+05, best bound 2.382715926457e+05, gap 0.0141%

Gurobi 11.0.3 (linux64) logging started Mon Aug 25 15:05:03 2025

Set parameter LogFile to value "/home/yihong/Coding/OR_SUC/SUC_epstheta_results_bigM100000_thread4/case24_ieee_rts_theta0.1_epsilon0.1_gurobi_seed20000_num_gen100_N_WDR50_load_scaling_factor1_proposed_theta_T10quadra_cost_bc1.01.txt"
Set parameter TimeLimit to value 3600
Gurobi Optimizer version 11.0.3 build v11.0.3rc0 (linux64 - "Ubuntu 20.04.6 LTS")

CPU model: AMD EPYC 7532 32-Core Processor, instruction set [SSE2|AVX|AVX2]
Thread count: 64 physical cores, 128 logical processors, using up to 4 threads

Academic license 2399124 - for non-commercial use only - registered to yi___@ed.ac.uk
Optimize a model with 23643 rows, 12452 columns and 550243 nonzeros
Model fingerprint: 0xdfa69051
Model has 1000 quadratic constraints
Variable types: 11452 continuous, 1000 integer (1000 binary)
Coefficient statistics:
  Matrix range     [3e-04, 3e+03]
  QMatrix range    [2e-03, 8e-03]
  QLMatrix range   [2e-02, 6e+01]
  Objective range  [1e+00, 1e+00]
  Bounds range     [1e-01, 1e+00]
  RHS range        [1e+00, 2e+05]
Presolve removed 17671 rows and 4513 columns
Presolve time: 0.21s
Presolved: 5972 rows, 7939 columns, 32206 nonzeros
Presolved model has 1000 quadratic constraint(s)
Variable types: 6937 continuous, 1002 integer (1002 binary)

Root relaxation: objective 1.047460e+01, 5823 iterations, 0.12 seconds (0.12 work units)

    Nodes    |    Current Node    |     Objective Bounds      |     Work
 Expl Unexpl |  Obj  Depth IntInf | Incumbent    BestBd   Gap | It/Node Time

     0     0   10.47460    0    3          -   10.47460      -     -    0s
     0     0    3.42003    0   14          -    3.42003      -     -    1s
     0     0    3.41983    0   14          -    3.41983      -     -    1s
     0     0    0.44979    0   10          -    0.44979      -     -    1s
     0     0    0.44708    0   11          -    0.44708      -     -    1s
     0     0    0.44706    0   11          -    0.44706      -     -    1s
     0     0    0.44706    0   10          -    0.44706      -     -    1s
     0     0    0.44704    0   10          -    0.44704      -     -    1s
H    0     0                       0.3954974    0.44704  13.0%     -    2s
     0     2    0.44704    0   10    0.39550    0.44704  13.0%     -    2s
H   29    33                       0.4053320    0.44642  10.1%  19.2    3s
H  187   185                       0.4219209    0.44642  5.81%  10.6    4s
*  187   185              47       0.4219209    0.44642  5.81%  10.7    4s
H  251   224                       0.4311981    0.44604  3.44%  11.8    4s
   286   250    0.43597   33    4    0.43120    0.44604  3.44%  11.6    5s
H  325   248                       0.4343175    0.44604  2.70%  11.3    5s
*  325   248              46       0.4343175    0.44604  2.70%  11.3    5s
H  379   227                       0.4391060    0.44604  1.58%  12.5    5s
*  379   227              47       0.4391060    0.44604  1.58%  12.6    5s
H  425   168                       0.4415258    0.44604  1.02%  13.1    6s
   445   180    0.44403   18   34    0.44153    0.44580  0.97%  12.5   10s
H  604   221                       0.4417337    0.44536  0.82%  24.9   12s
*  604   221              37       0.4417337    0.44536  0.82%  24.9   12s
H  775   186                       0.4425220    0.44504  0.57%  22.8   13s
*  775   186              26       0.4425220    0.44504  0.57%  22.8   13s
H  903    74                       0.4429771    0.44315  0.04%  22.0   13s
*  903    74              28       0.4429771    0.44307  0.02%  22.0   13s

Cutting planes:
  Gomory: 6
  Implied bound: 3
  MIR: 22
  Mixing: 1
  Flow cover: 6
  RLT: 3
  Relax-and-lift: 3

Explored 915 nodes (32776 simplex iterations) in 13.43 seconds (13.41 work units)
Thread count was 4 (of 128 available processors)

Solution count 10: 0.442977 0.442522 0.441734 ... 0.395497

Optimal solution found (tolerance 1.00e-03)
Warning: max constraint violation (7.5977e-09) exceeds tolerance
Best objective 4.429771374177e-01, best bound 4.430709877696e-01, gap 0.0212%
